p cnf 29 111
c max 8 9 10 11 17 18 19 20 26 27 28 29 0
c ind 1 2 3 4 5 6 7 12 13 14 15 16 21 22 23 24 25 0
c p complex 2 0.9238795325112867384831361050601117312908172607421875 -0.382683432365089781779232680491986684501171112060546875 0
c p complex -2 1 0 0
c p weight 4 -1 0
c p weight -4 1 0
c p weight 5 0.70710678118654752440084436210485 0
c p weight -5 1 0
c p complex 6 0.70710678118654752440084436210485 0.70710678118654752440084436210485 0
c p complex -6 1 0 0
c p complex 7 0.70710678118654752440084436210485 -0.70710678118654752440084436210485 0
c p complex -7 1 0 0
c p weight 13 -1 0
c p weight -13 1 0
c p weight 14 0.70710678118654752440084436210485 0
c p weight -14 1 0
c p complex 15 0.70710678118654752440084436210485 0.70710678118654752440084436210485 0
c p complex -15 1 0 0
c p complex 16 0.70710678118654752440084436210485 -0.70710678118654752440084436210485 0
c p complex -16 1 0 0
c p weight 22 -1 0
c p weight -22 1 0
c p weight 23 0.70710678118654752440084436210485 0
c p weight -23 1 0
c p complex 24 0.70710678118654752440084436210485 0.70710678118654752440084436210485 0
c p complex -24 1 0 0
c p complex 25 0.70710678118654752440084436210485 -0.70710678118654752440084436210485 0
c p complex -25 1 0 0
2 -1 0
-2 1 0
3 -8 -1 0
-3 -8 1 0
-4 -8 0
-5 -8 0
-7 -8 0
-6 -8 0
-4 3 -9 0
-4 -9 1 0
4 -3 -9 -1 0
5 -9 0
-7 -9 0
-6 -9 0
3 -11 -1 0
3 -10 -1 0
-3 -11 1 0
-3 -10 1 0
-4 -11 0
-4 -10 0
-5 -11 0
-5 -10 0
-7 -10 0
-6 -11 0
7 -11 -1 0
6 -10 -1 0
-7 -11 1 0
-6 -10 1 0
8 9 10 11 0
-8 -9 0
-8 -10 0
-8 -11 0
-9 -10 0
-9 -11 0
-10 -11 0
12 -17 -3 0
-12 -17 3 0
-13 -17 0
-14 -17 0
-16 -17 0
-15 -17 0
-13 12 -18 0
-13 -18 3 0
13 -12 -18 -3 0
14 -18 0
-16 -18 0
-15 -18 0
12 -20 -3 0
12 -19 -3 0
-12 -20 3 0
-12 -19 3 0
-13 -20 0
-13 -19 0
-14 -20 0
-14 -19 0
-16 -19 0
-15 -20 0
16 -20 -3 0
15 -19 -3 0
-16 -20 3 0
-15 -19 3 0
17 18 19 20 0
-17 -18 0
-17 -19 0
-17 -20 0
-18 -19 0
-18 -20 0
-19 -20 0
-18 -9 0
-19 -11 0
-20 -10 0
-8 17 0
21 -26 -12 0
-21 -26 12 0
-22 -26 0
-23 -26 0
-25 -26 0
-24 -26 0
-22 21 -27 0
-22 -27 12 0
22 -21 -27 -12 0
23 -27 0
-25 -27 0
-24 -27 0
21 -29 -12 0
21 -28 -12 0
-21 -29 12 0
-21 -28 12 0
-22 -29 0
-22 -28 0
-23 -29 0
-23 -28 0
-25 -28 0
-24 -29 0
25 -29 -12 0
24 -28 -12 0
-25 -29 12 0
-24 -28 12 0
26 27 28 29 0
-26 -27 0
-26 -28 0
-26 -29 0
-27 -28 0
-27 -29 0
-28 -29 0
-27 -18 0
-28 -20 0
-29 -19 0
-17 26 0
21 -1 0
-21 1 0
